# variables to be replaced by infretis
variable 	subcycles index infretis_subcycles
variable	timestep index infretis_timestep
variable	nsteps index infretis_nsteps
variable	initconf index infretis_initconf
variable	name index infretis_name
variable 	lammpsdata index infretis_lammpsdata

units real
atom_style full

dimension 3
boundary p p p

bond_style hybrid harmonic
angle_style hybrid harmonic
dihedral_style hybrid fourier
improper_style cvff
special_bonds lj 0.0 0.0 0.5 coul 0.0 0.0 0.8333333333
pair_style lj/cut/coul/long 10.0 10.0
pair_modify mix arithmetic tail yes

read_data ${lammpsdata} # add
read_dump ${initconf} 0 x y z vx vy vz box yes # add

fix 1 all nve
fix 2 all langevin 300.0 300.0 200.0 48279

thermo 10
thermo_style custom step ke pe etotal temp

dump 1 all custom ${subcycles} ${name}.lammpstrj id x y z vx vy vz # add

kspace_style pppm 1e-4
timestep ${timestep} # add

run ${nsteps} # add
