# variables to be replaced by infretis
variable 	subcycles index infretis_subcycles
variable	timestep index infretis_timestep
variable	nsteps index infretis_nsteps
variable	initconf index infretis_initconf
variable	name index infretis_name
variable 	lammpsdata index infretis_lammpsdata
variable	temperature index infretis_temperature
variable	seed index infretis_seed

units real
atom_style full

dimension 3
boundary p p p

pair_style lj/cut/coul/cut 12.0 12.0
pair_modify mix arithmetic tail yes

read_data ${lammpsdata} # add
read_dump ${initconf} 0 x y z vx vy vz box yes # add

fix 1 all nve
fix 2 all langevin ${temperature} ${temperature} 500.0 ${seed}

thermo ${subcycles}
thermo_style custom step ke pe etotal temp

dump 1 all custom ${subcycles} ${name}.lammpstrj id type x y z vx vy vz # add
dump_modify 1 pbc yes

timestep ${timestep} # add

run ${nsteps} # add
